NAME          ClpDefau  FREE
ROWS
 N  OBJROW
 L  ZMUNI1_PCT
 L  ZMUNI2_PCT
 L  ZMUNI3_PCT
 L  ZMUNI4_PCT
 L  ZMUNI5_PCT
 L  ZMUNI6_PCT
 L  ZMUNI7_PCT
 L  ZMUNI8_PCT
 L  ZMUNI9_PCT
COLUMNS
    QMUNI1 OBJROW 1.          
    QMUNI1 ZMUNI1_PCT 30161.8576  
    QMUNI1 ZMUNI2_PCT 2090.2634   
    QMUNI1 ZMUNI3_PCT 4563.7131   
    QMUNI1 ZMUNI4_PCT 3387.2604   
    QMUNI1 ZMUNI5_PCT 514.6026    
    QMUNI1 ZMUNI6_PCT 698.0896    
    QMUNI1 ZMUNI7_PCT 2404.7851   
    QMUNI1 ZMUNI8_PCT 1938.2477   
    QMUNI1 ZMUNI9_PCT 1096.9162   
    QMUNI2 OBJROW 1.          
    QMUNI2 ZMUNI1_PCT 1803.5889   
    QMUNI2 ZMUNI2_PCT 35484.314   
    QMUNI2 ZMUNI3_PCT 2606.0105   
    QMUNI2 ZMUNI4_PCT 2758.4076   
    QMUNI2 ZMUNI5_PCT 105.8578    
    QMUNI2 ZMUNI6_PCT 181.3888    
    QMUNI2 ZMUNI7_PCT 1119.9951   
    QMUNI2 ZMUNI8_PCT 1332.4737   
    QMUNI2 ZMUNI9_PCT 1225.853    
    QMUNI3 OBJROW 1.          
    QMUNI3 ZMUNI1_PCT 4879.9515   
    QMUNI3 ZMUNI2_PCT 3343.01     
    QMUNI3 ZMUNI3_PCT 31899.2615  
    QMUNI3 ZMUNI4_PCT 5724.5254   
    QMUNI3 ZMUNI5_PCT 801.8493    
    QMUNI3 ZMUNI6_PCT 940.5136    
    QMUNI3 ZMUNI7_PCT 2808.7616   
    QMUNI3 ZMUNI8_PCT 2679.8248   
    QMUNI3 ZMUNI9_PCT 2120.781    
    QMUNI4 OBJROW 1.          
    QMUNI4 ZMUNI1_PCT 3260.4218   
    QMUNI4 ZMUNI2_PCT 3037.262    
    QMUNI4 ZMUNI3_PCT 5466.2705   
    QMUNI4 ZMUNI4_PCT 110766.7923 
    QMUNI4 ZMUNI5_PCT  -207.7103  
    QMUNI4 ZMUNI6_PCT  -84.4956   
    QMUNI4 ZMUNI7_PCT 1103.2104   
    QMUNI4 ZMUNI8_PCT 1082.9925   
    QMUNI4 ZMUNI9_PCT 559.0439    
    QMUNI5 OBJROW 1.          
    QMUNI5 ZMUNI1_PCT 442.8864    
    QMUNI5 ZMUNI2_PCT 273.7046    
    QMUNI5 ZMUNI3_PCT 373.4589    
    QMUNI5 ZMUNI4_PCT 313.5681    
    QMUNI5 ZMUNI5_PCT 37773.323   
    QMUNI5 ZMUNI6_PCT 3274.9176   
    QMUNI5 ZMUNI7_PCT 770.1874    
    QMUNI5 ZMUNI8_PCT 597.763     
    QMUNI5 ZMUNI9_PCT 539.3982    
    QMUNI6 OBJROW 1.          
    QMUNI6 ZMUNI1_PCT 355.9113    
    QMUNI6 ZMUNI2_PCT 100.3266    
    QMUNI6 ZMUNI3_PCT 247.3832    
    QMUNI6 ZMUNI4_PCT 181.3888    
    QMUNI6 ZMUNI5_PCT 3330.4214   
    QMUNI6 ZMUNI6_PCT 34257.1258  
    QMUNI6 ZMUNI7_PCT 499.7253    
    QMUNI6 ZMUNI8_PCT 156.0211    
    QMUNI6 ZMUNI9_PCT  -79.5364   
    QMUNI7 OBJROW 1.          
    QMUNI7 ZMUNI1_PCT 1508.9035   
    QMUNI7 ZMUNI2_PCT 872.612     
    QMUNI7 ZMUNI3_PCT 1321.7926   
    QMUNI7 ZMUNI4_PCT 1015.2817   
    QMUNI7 ZMUNI5_PCT 424.0036    
    QMUNI7 ZMUNI6_PCT 633.2397    
    QMUNI7 ZMUNI7_PCT 33316.04    
    QMUNI7 ZMUNI8_PCT 2565.0024   
    QMUNI7 ZMUNI9_PCT 798.9884    
    QMUNI8 OBJROW 1.          
    QMUNI8 ZMUNI1_PCT 1085.4721   
    QMUNI8 ZMUNI2_PCT 772.667     
    QMUNI8 ZMUNI3_PCT 1061.4396   
    QMUNI8 ZMUNI4_PCT 831.9855    
    QMUNI8 ZMUNI5_PCT 285.5301    
    QMUNI8 ZMUNI6_PCT 318.5272    
    QMUNI8 ZMUNI7_PCT 2308.6548   
    QMUNI8 ZMUNI8_PCT 29923.0575  
    QMUNI8 ZMUNI9_PCT 625.9919    
    QMUNI9 OBJROW 1.          
    QMUNI9 ZMUNI1_PCT 276.947     
    QMUNI9 ZMUNI2_PCT 592.2318    
    QMUNI9 ZMUNI3_PCT 361.8241    
    QMUNI9 ZMUNI4_PCT 319.6716    
    QMUNI9 ZMUNI5_PCT  -162.5061  
    QMUNI9 ZMUNI6_PCT  -154.1138  
    QMUNI9 ZMUNI7_PCT 181.1981    
    QMUNI9 ZMUNI8_PCT 717.926     
    QMUNI9 ZMUNI9_PCT 28434.5627  
RHS
    RHS ZMUNI1_PCT  -0.15004583
    RHS ZMUNI2_PCT -0.082555581
    RHS ZMUNI3_PCT -0.081008911
    RHS ZMUNI4_PCT -0.026658803
    RHS ZMUNI5_PCT -0.038011077
    RHS ZMUNI6_PCT  -0.17075807
    RHS ZMUNI7_PCT 0.0533406024
    RHS ZMUNI8_PCT -0.009110585
    RHS ZMUNI9_PCT 0.0338489984
BOUNDS
 LO BOUND QMUNI1 -0.000661188
 UP BOUND QMUNI1      1.1e+10
 LO BOUND QMUNI2 -0.000468622
 UP BOUND QMUNI2      1.1e+10
 LO BOUND QMUNI3 -0.000535991
 UP BOUND QMUNI3      1.1e+10
 LO BOUND QMUNI4 -0.000198684
 UP BOUND QMUNI4      1.1e+10
 LO BOUND QMUNI5 -0.000333342
 UP BOUND QMUNI5      1.1e+10
 LO BOUND QMUNI6 -0.000479143
 UP BOUND QMUNI6      1.1e+10
 LO BOUND QMUNI7 -0.000167943
 UP BOUND QMUNI7      1.1e+10
 LO BOUND QMUNI8 -0.000279647
 UP BOUND QMUNI8      1.1e+10
 LO BOUND QMUNI9 -0.000283039
 UP BOUND QMUNI9      1.1e+10
ENDATA
